77 130 10
57 32
1802 3 4 5
1808 2 4 5
1824 2 3 5
1839 2 3 4
1762 7
1762 6
2200 10 11 12 26 29
2201 10 11 12 22 23 24 25 26 27
2215 8 9 11 12 26 27
2230 8 9 10 12 16 26 27 28
1630 8 9 10 11 19 21 22 23 24 25 26 29 30
1813 14
1801 13
2009 16 21 22 23 24 28
2215 11 15 21 22 23 24 26 27 29 30
1398 18
1184 17
2320 12 20 21 22 23 24 25
2466 19 21 22 24 28
2466 12 15 16 19 20 22 24 28
2476 9 12 15 16 19 20 21 23 24 25 28
2487 9 12 15 16 19 22 24 25 26 28
2477 9 12 15 16 19 20 21 22 23 25 28
2365 9 12 19 22 23 24 26 28
2368 8 9 10 11 12 16 23 25 27 28
2552 9 10 11 16 26 28
2979 11 15 20 21 22 23 24 25 26 27
2422 8 12 16 30 31
2414 12 16 29 31
2729 29 30
2544 1
1929 34 35
2115 33
2083 33
1795 37
1760 36
1868 39 40 41
1872 38 40 41 42 43
1877 38 39 41
1894 38 39 40
1914 39 43
1971 39 42
316 61 62 63
34 46 47 48
45 45 47 48
62 45 46 48 49 50
69 45 46 47
87 47 50
101 47 49
359 52
1045 51
508 54
508 53
543 56
84 55
95 58
103 57
580 60
579 59
316 44 62 63
349 44 61 63 64
381 44 61 62 64
448 62 63 65
531 64 66 67
594 65 67
602 65 66
1522 69
1521 68
1454 71
1536 70
1763 73
1763 72
1766 75
1766 74
1777 77
1776 76
