93 150 10
47 4
132 3
112 2
334 1 5
368 4
147 7
246 6
1307 9
1221 8
1501 11 12
1506 10 12
1515 10 11 13
1543 12
1552 15
1557 14
1083 17 18 29 30 31 32
1016 16 18 31 32
977 16 17 31 32
1337 20 21 22 23 24 28 33 34 35 36 37
1271 19 21 22 23 24 28 34
1362 19 20 22 23 24 36 37
1363 19 20 21 23 24
1362 19 20 21 22 24
1327 19 20 21 22 23
1272 26 27 33
1214 25 27 28 33 34 35
1294 25 26 28 33
1339 19 20 26 27 30 31 32 34 35 36 37
1111 16 30 31 32
1142 16 28 29 31 32 33
1118 16 17 18 28 29 30 32 33 34
1142 16 17 18 28 29 30 31 33 34
1411 19 25 26 27 30 31 32 35 36 37
1323 19 20 26 28 31 32 35
1470 19 26 28 33 34 36 37
1575 19 21 28 33 35 37
1575 19 21 28 33 35 36
360 40
109 41
1223 38
125 39
73 43
309 42
858 45
958 44
1146 47
1453 46
1974 49
1982 48
1933 51
1933 50
1547 54
1962 54
1949 52 53
2248 56
2597 55
248 58 59 62
233 57 59 62
232 57 58 62
297 61
302 60
335 57 58 59
1227 64
1226 63
1306 66 67
1278 65 67
1252 65 66
919 69 70 72 73
921 68 70 72 73
923 68 69 72 73
1008 72 73 74 75
993 68 69 70 71 73 74
993 68 69 70 71 72 74
1031 71 72 73 75
1602 71 74 76
1105 75
211 78 79
246 77 79
1375 77 78
1818 81
1816 80
1794 83 84 85 86 87
1786 82 84 85 86 87 88
1797 82 83 85 86 87 88
1793 82 83 84 86 87 88
1793 82 83 84 85 87 88
1812 82 83 84 85 86 88
1825 83 84 85 86 87
1855 90 91
1855 89 91
1856 89 90 92 93
1850 91 93
1847 91 92
