113 202 10
77 2 3 4
77 1 3 4
108 1 2 4
128 1 2 3
532 6 7 17 18 19
475 5 7 17 19
455 5 6 17 19
1493 9
1494 8
1285 11
1285 10
1285 13
1284 12
1285 15 16
1286 14
1284 14
545 5 6 7 18 19
703 5 17 19
761 5 6 7 17 18
310 21
365 20
454 23
473 22 24
556 23
659 26 27 28
686 25 27 28
695 25 26 28
687 25 26 27
914 30 31 32
893 29 31 32
938 29 30 32
1028 29 30 31
125 34
125 33
824 36
824 35
171 43
222 43
625 44
710 43
832 42 43
1230 41 43 44
1202 37 38 40 41 42 44
903 39 42 43
1613 47 48
1615 47
1607 45 46 48
1617 45 47
1610 50
1613 49
1813 52
1814 51 53
1813 52 54
1813 53
1813 56 57 58 59 61 62 63 64 65 66
1813 55 57 58 59 61 63 64 65 66
1814 55 56 59 61 64 66
1813 55 56 59 60 61 62 63 64 65 66 68 69 70
1814 55 56 57 58 61 62 63 64 65 66 68 70
1814 58 62 63 68 69 70
1814 55 56 57 58 59 62 63 64 65 66 68 70
1813 55 58 59 60 61 63 64 68 69 70
1814 55 56 58 59 60 61 62 64 65 66 68 69 70
1814 55 56 57 58 59 61 62 63 65 66 68 70 71 72
1813 55 56 58 59 61 63 64 66 70 72
1813 55 56 57 58 59 61 63 64 65 70 71 72
1813 74
1813 58 59 60 61 62 63 64 69 70 72 75
1813 58 60 62 63 68 70 72 75
1814 58 59 60 61 62 63 64 65 66 68 69 71 72 73 75
1813 64 66 70 73 75
1813 64 65 66 68 69 70 75
1813 70 71 75
1813 67
1813 68 69 70 71 72 73
391 77
479 76 78
545 77
39 80
51 79
1807 82
1807 81
2764 84
2711 83
1818 86 87
1785 85 87
95 85 86
2157 89
2157 88
2157 91
2157 90
2157 93 94
2157 92 94
2157 92 93
2151 96
2152 95
1613 98
1691 97
225 100 101 104
200 99 103 104 108 110 111
349 99 102 103 104 108 109 110 111
475 101 103 108 110 111
480 100 101 102 104 108 110 111
359 99 100 101 103 105 106 111
46 104 106 107
44 104 105 107
613 105 106 112 113
539 100 101 102 103 110 111
687 101 110 111
693 100 101 102 103 108 109 111
749 100 101 102 103 104 108 109 110 112
1449 107 111
1470 107
